set C := 1 2 3 4 5 6 7 8 9 10;

param q :=
    1 47.19
    2 29.81
    3 47.24
    4 47.73
    5 17.68
    6 30.85
    7 48.57
    8 27.62
    9 10.01
    10 27.64;
param ca :=
    1 198.51
    2 197.17
    3 171.05
    4 204.44
    5 175.15
    6 167.93
    7 222.75
    8 237.75
    9 240.12
    10 175.51;
param cc :=
    1 38.46
    2 34.37
    3 37.48
    4 39.97
    5 49.03
    6 35.24
    7 41.55
    8 47.48
    9 44.21
    10 43.31;
param cp :=
    1 8.92
    2 9.11
    3 10.18
    4 9.18
    5 10.51
    6 9.62
    7 6.40
    8 5.77
    9 5.57
    10 9.90;
param sMin := 0;
param sMax := 80;

namespace t0
{
    set A := 1;
    set AAnt := 2;
    set P := 3 4 5 6 7 8 9 10;
    set S := 1;

    param p :=
        1 1.0000000000;
    param d :=
        1 42.39;
    param h := 1;
    param s0 := 20;
}

namespace t1
{
    set AAnt := 1;
    set P := 3 4 5 6 7 8 9 10;
    set PAnt := 3 4 5 6 7 8 9 10;
    set S := 1 2 3;

    param p :=
        1 0.0996852613
        2 0.1966748836
        3 0.7036398551;
    param d :=
        1 46.46
        2 19.56
        3 47.26;
    param h := 1;
}

namespace t2
{
    set A2Ant := 1;
    set P := 3 4 5 6 7 8 9 10;
    set PAnt := 3 4 5 6 7 8 9 10;
    set S := 1 2 3;

    param p :=
        1 0.3009966825
        2 0.4450678585
        3 0.2539354590;
    param d :=
        1 11.25
        2 12.74
        3 25.79;
    param h := 1;
}

namespace t3
{
    set P := 3 4 5 6 7 8 9 10;
    set PAnt := 3 4 5 6 7 8 9 10;
    set S := 1 2 3;

    param p :=
        1 0.3847967084
        2 0.4544232431
        3 0.1607800485;
    param d :=
        1 45.19
        2 27.83
        3 22.78;
    param h := 1;
}

namespace t4
{
    set PAnt := 3 4 5 6 7 8 9 10;
    set S := 1 2 3;

    param p :=
        1 0.3553970856
        2 0.5280857780
        3 0.1165171364;
    param d :=
        1 11.42
        2 40.91
        3 13.39;
    param h := 1;
}
